Minimize
  - 13 y_0 - 22 y_1 - 18 y_2 - 10 y_3 - 17 y_4 - 21 y_5 - 22 y_6 - 30 y_7
   - 28 y_9 - 31 y_10 - 13 y_11 - 28 y_12 - 23 y_13 - 19 y_14 - 19 y_15
   - 24 y_16 - y_17 - 11 y_18 - 20 y_19 + 370 Constant
Subject To
 c_0: y_17 = 1
 c_1_0: y_0 + y_11 >= 1
 c_1_1: y_1 + y_4 >= 1
 c_1_2: y_2 + y_5 + y_12 + y_13 >= 1
 c_1_3: y_3 + y_8 + y_14 + y_17 >= 1
 c_1_4: y_1 + y_4 >= 1
 c_1_5: y_2 + y_5 + y_12 + y_13 >= 1
 c_1_6: y_6 + y_14 >= 1
 c_1_7: y_7 + y_9 >= 1
 c_1_8: y_3 + y_8 + y_17 >= 1
 c_1_9: y_7 + y_9 >= 1
 c_1_10: y_10 >= 1
 c_1_11: y_0 + y_11 >= 1
 c_1_12: y_2 + y_5 + y_12 + y_13 >= 1
 c_1_13: y_2 + y_5 + y_12 + y_13 >= 1
 c_1_14: y_3 + y_6 + y_14 >= 1
 c_1_15: y_15 + y_19 >= 1
 c_1_16: y_16 >= 1
 c_1_17: y_3 + y_8 + y_17 >= 1
 c_1_18: y_18 >= 1
 c_1_19: y_15 + y_19 >= 1
Bounds
 Constant = 1
Binaries
 y_0 y_1 y_2 y_3 y_4 y_5 y_6 y_7 y_8 y_9 y_10 y_11 y_12 y_13 y_14 y_15 y_16
 y_17 y_18 y_19
End
